100 100
69 34 62 74 73 48 47 45 47 44 53 36 28 66 40 67 29 26 26 30 32 47 61 65 61 63 31 37 69 49 41 34 54 64 42 43 48 65 66 57
65 73 34 49 45 27 45 67 49 34 50 65 26 53 49 70 51 67 40 34 39 34 27 28 54 56 29 60 33 51 44 39 43 61 61 54 47 56 43 47
4485 2482 2108 3626 3285 1296 2115 3015 2303 1496 2650 2340 728 3498 1960 4690 1479 1742 1040 1020 1248 1598 1647 1820 3294 3528 899 2220 2277 2499 1804 1326 2322 3904 2562 2322 2256 3640 2838 2679
